(set-logic QF_LRA)
(declare-fun X0 () Real )
(declare-fun Y0 () Real )
(declare-fun X1 () Real )
(declare-fun Y1 () Real )
(declare-fun X2 () Real )
(declare-fun Y2 () Real )
(declare-fun X3 () Real )
(declare-fun Y3 () Real )
(declare-fun X4 () Real )
(declare-fun Y4 () Real )
(declare-fun X5 () Real )
(declare-fun Y5 () Real )
(declare-fun X6 () Real )
(declare-fun Y6 () Real )
(declare-fun X7 () Real )
(declare-fun Y7 () Real )
(declare-fun X8 () Real )
(declare-fun Y8 () Real )
(declare-fun Z () Real )
(declare-fun k () Real )
(assert (let
(( $goal (>= Z k) ))
(let
((
$phi ( and 
( or ( <= ( + X0 71 ) X1 )  ( <= ( + X1 1 ) X0 )  ( <= ( + Y0 17 ) Y1 )  ( <= ( + Y1 25 ) Y0 )  )
( or ( <= ( + X0 71 ) X2 )  ( <= ( + X2 44 ) X0 )  ( <= ( + Y0 17 ) Y2 )  ( <= ( + Y2 5 ) Y0 )  )
( or ( <= ( + X0 71 ) X3 )  ( <= ( + X3 75 ) X0 )  ( <= ( + Y0 17 ) Y3 )  ( <= ( + Y3 22 ) Y0 )  )
( or ( <= ( + X0 71 ) X4 )  ( <= ( + X4 85 ) X0 )  ( <= ( + Y0 17 ) Y4 )  ( <= ( + Y4 10 ) Y0 )  )
( or ( <= ( + X0 71 ) X5 )  ( <= ( + X5 53 ) X0 )  ( <= ( + Y0 17 ) Y5 )  ( <= ( + Y5 37 ) Y0 )  )
( or ( <= ( + X0 71 ) X6 )  ( <= ( + X6 27 ) X0 )  ( <= ( + Y0 17 ) Y6 )  ( <= ( + Y6 81 ) Y0 )  )
( or ( <= ( + X0 71 ) X7 )  ( <= ( + X7 82 ) X0 )  ( <= ( + Y0 17 ) Y7 )  ( <= ( + Y7 53 ) Y0 )  )
( or ( <= ( + X0 71 ) X8 )  ( <= ( + X8 35 ) X0 )  ( <= ( + Y0 17 ) Y8 )  ( <= ( + Y8 52 ) Y0 )  )
( or ( <= ( + X1 1 ) X2 )  ( <= ( + X2 44 ) X1 )  ( <= ( + Y1 25 ) Y2 )  ( <= ( + Y2 5 ) Y1 )  )
( or ( <= ( + X1 1 ) X3 )  ( <= ( + X3 75 ) X1 )  ( <= ( + Y1 25 ) Y3 )  ( <= ( + Y3 22 ) Y1 )  )
( or ( <= ( + X1 1 ) X4 )  ( <= ( + X4 85 ) X1 )  ( <= ( + Y1 25 ) Y4 )  ( <= ( + Y4 10 ) Y1 )  )
( or ( <= ( + X1 1 ) X5 )  ( <= ( + X5 53 ) X1 )  ( <= ( + Y1 25 ) Y5 )  ( <= ( + Y5 37 ) Y1 )  )
( or ( <= ( + X1 1 ) X6 )  ( <= ( + X6 27 ) X1 )  ( <= ( + Y1 25 ) Y6 )  ( <= ( + Y6 81 ) Y1 )  )
( or ( <= ( + X1 1 ) X7 )  ( <= ( + X7 82 ) X1 )  ( <= ( + Y1 25 ) Y7 )  ( <= ( + Y7 53 ) Y1 )  )
( or ( <= ( + X1 1 ) X8 )  ( <= ( + X8 35 ) X1 )  ( <= ( + Y1 25 ) Y8 )  ( <= ( + Y8 52 ) Y1 )  )
( or ( <= ( + X2 44 ) X3 )  ( <= ( + X3 75 ) X2 )  ( <= ( + Y2 5 ) Y3 )  ( <= ( + Y3 22 ) Y2 )  )
( or ( <= ( + X2 44 ) X4 )  ( <= ( + X4 85 ) X2 )  ( <= ( + Y2 5 ) Y4 )  ( <= ( + Y4 10 ) Y2 )  )
( or ( <= ( + X2 44 ) X5 )  ( <= ( + X5 53 ) X2 )  ( <= ( + Y2 5 ) Y5 )  ( <= ( + Y5 37 ) Y2 )  )
( or ( <= ( + X2 44 ) X6 )  ( <= ( + X6 27 ) X2 )  ( <= ( + Y2 5 ) Y6 )  ( <= ( + Y6 81 ) Y2 )  )
( or ( <= ( + X2 44 ) X7 )  ( <= ( + X7 82 ) X2 )  ( <= ( + Y2 5 ) Y7 )  ( <= ( + Y7 53 ) Y2 )  )
( or ( <= ( + X2 44 ) X8 )  ( <= ( + X8 35 ) X2 )  ( <= ( + Y2 5 ) Y8 )  ( <= ( + Y8 52 ) Y2 )  )
( or ( <= ( + X3 75 ) X4 )  ( <= ( + X4 85 ) X3 )  ( <= ( + Y3 22 ) Y4 )  ( <= ( + Y4 10 ) Y3 )  )
( or ( <= ( + X3 75 ) X5 )  ( <= ( + X5 53 ) X3 )  ( <= ( + Y3 22 ) Y5 )  ( <= ( + Y5 37 ) Y3 )  )
( or ( <= ( + X3 75 ) X6 )  ( <= ( + X6 27 ) X3 )  ( <= ( + Y3 22 ) Y6 )  ( <= ( + Y6 81 ) Y3 )  )
( or ( <= ( + X3 75 ) X7 )  ( <= ( + X7 82 ) X3 )  ( <= ( + Y3 22 ) Y7 )  ( <= ( + Y7 53 ) Y3 )  )
( or ( <= ( + X3 75 ) X8 )  ( <= ( + X8 35 ) X3 )  ( <= ( + Y3 22 ) Y8 )  ( <= ( + Y8 52 ) Y3 )  )
( or ( <= ( + X4 85 ) X5 )  ( <= ( + X5 53 ) X4 )  ( <= ( + Y4 10 ) Y5 )  ( <= ( + Y5 37 ) Y4 )  )
( or ( <= ( + X4 85 ) X6 )  ( <= ( + X6 27 ) X4 )  ( <= ( + Y4 10 ) Y6 )  ( <= ( + Y6 81 ) Y4 )  )
( or ( <= ( + X4 85 ) X7 )  ( <= ( + X7 82 ) X4 )  ( <= ( + Y4 10 ) Y7 )  ( <= ( + Y7 53 ) Y4 )  )
( or ( <= ( + X4 85 ) X8 )  ( <= ( + X8 35 ) X4 )  ( <= ( + Y4 10 ) Y8 )  ( <= ( + Y8 52 ) Y4 )  )
( or ( <= ( + X5 53 ) X6 )  ( <= ( + X6 27 ) X5 )  ( <= ( + Y5 37 ) Y6 )  ( <= ( + Y6 81 ) Y5 )  )
( or ( <= ( + X5 53 ) X7 )  ( <= ( + X7 82 ) X5 )  ( <= ( + Y5 37 ) Y7 )  ( <= ( + Y7 53 ) Y5 )  )
( or ( <= ( + X5 53 ) X8 )  ( <= ( + X8 35 ) X5 )  ( <= ( + Y5 37 ) Y8 )  ( <= ( + Y8 52 ) Y5 )  )
( or ( <= ( + X6 27 ) X7 )  ( <= ( + X7 82 ) X6 )  ( <= ( + Y6 81 ) Y7 )  ( <= ( + Y7 53 ) Y6 )  )
( or ( <= ( + X6 27 ) X8 )  ( <= ( + X8 35 ) X6 )  ( <= ( + Y6 81 ) Y8 )  ( <= ( + Y8 52 ) Y6 )  )
( or ( <= ( + X7 82 ) X8 )  ( <= ( + X8 35 ) X7 )  ( <= ( + Y7 53 ) Y8 )  ( <= ( + Y8 52 ) Y7 )  )
( >= X0 0)
( <= ( + X0 71) Z)
( >= Y0 0)
( <= ( + Y0 17 ) 100)
( >= X1 0)
( <= ( + X1 1) Z)
( >= Y1 0)
( <= ( + Y1 25 ) 100)
( >= X2 0)
( <= ( + X2 44) Z)
( >= Y2 0)
( <= ( + Y2 5 ) 100)
( >= X3 0)
( <= ( + X3 75) Z)
( >= Y3 0)
( <= ( + Y3 22 ) 100)
( >= X4 0)
( <= ( + X4 85) Z)
( >= Y4 0)
( <= ( + Y4 10 ) 100)
( >= X5 0)
( <= ( + X5 53) Z)
( >= Y5 0)
( <= ( + Y5 37 ) 100)
( >= X6 0)
( <= ( + X6 27) Z)
( >= Y6 0)
( <= ( + Y6 81 ) 100)
( >= X7 0)
( <= ( + X7 82) Z)
( >= Y7 0)
( <= ( + Y7 53 ) 100)
( >= X8 0)
( <= ( + X8 35) Z)
( >= Y8 0)
( <= ( + Y8 52 ) 100)
) )
)(=> $phi $goal))))